NAME (null)_copy
ROWS
 N  OBJ
 L  ROW00001
 L  ROW00002
 L  ROW00011
 L  ROW00012
 L  ROW00013
 L  ROW00022
 L  ROW00023
 L  ROW00024
 E  ROW00027
 E  ROW00028
 E  ROW00029
 L  ROW00033
 L  ROW00034
 L  ROW00035
 L  ROW00044
 L  ROW00045
 L  ROW00046
 E  ROW00049
 E  ROW00050
 E  ROW00051
 L  ROW00055
 L  ROW00056
 L  ROW00057
 L  ROW00066
 L  ROW00067
 L  ROW00068
 E  ROW00071
 E  ROW00072
 E  ROW00073
 L  ROW00077
 L  ROW00078
 L  ROW00079
 L  ROW00088
 L  ROW00089
 L  ROW00090
 L  ROW00099
 L  ROW00100
 L  ROW00101
 E  ROW00103
 L  ROW00104
 L  ROW00105
COLUMNS
    COL00006  ROW00027  -1
    COL00006  ROW00022  -1
    COL00006  ROW00002  1
    COL00006  ROW00001  2
    COL00006  ROW00011  -1
    COL00007  ROW00028  -1
    COL00007  ROW00023  -1
    COL00007  ROW00002  2
    COL00007  ROW00001  1
    COL00007  ROW00012  -1
    COL00008  ROW00029  -1
    COL00008  ROW00024  -1
    COL00008  ROW00002  1.5
    COL00008  ROW00001  1.5
    COL00008  ROW00013  -1
    COL00012  ROW00027  -1
    COL00012  ROW00022  -1
    COL00012  ROW00011  2
    COL00012  ROW00012  1
    COL00013  ROW00028  -1
    COL00013  ROW00023  -1
    COL00013  ROW00011  1
    COL00013  ROW00012  2
    COL00014  ROW00029  -1
    COL00014  ROW00024  -1
    COL00014  ROW00011  1.5
    COL00014  ROW00012  1.5
    COL00023  ROW00022  2
    COL00023  ROW00023  1
    COL00023  ROW00027  -1
    COL00024  ROW00022  1
    COL00024  ROW00023  2
    COL00024  ROW00028  -1
    COL00025  ROW00022  1.5
    COL00025  ROW00023  1.5
    COL00025  ROW00029  -1
    COL00028  ROW00049  -1
    COL00028  ROW00044  -1
    COL00028  ROW00033  -1
    COL00028  ROW00027  1
    COL00029  ROW00050  -1
    COL00029  ROW00045  -1
    COL00029  ROW00034  -1
    COL00029  ROW00028  1
    COL00030  ROW00051  -1
    COL00030  ROW00046  -1
    COL00030  ROW00035  -1
    COL00030  ROW00029  1
    COL00034  ROW00049  -1
    COL00034  ROW00044  -1
    COL00034  ROW00033  2
    COL00034  ROW00034  1
    COL00035  ROW00050  -1
    COL00035  ROW00045  -1
    COL00035  ROW00033  1
    COL00035  ROW00034  2
    COL00036  ROW00051  -1
    COL00036  ROW00046  -1
    COL00036  ROW00033  1.5
    COL00036  ROW00034  1.5
    COL00045  ROW00044  2
    COL00045  ROW00045  1
    COL00045  ROW00049  -1
    COL00046  ROW00044  1
    COL00046  ROW00045  2
    COL00046  ROW00050  -1
    COL00047  ROW00044  1.5
    COL00047  ROW00045  1.5
    COL00047  ROW00051  -1
    COL00050  ROW00071  -1
    COL00050  ROW00066  -1
    COL00050  ROW00055  -1
    COL00050  ROW00049  1
    COL00051  ROW00072  -1
    COL00051  ROW00067  -1
    COL00051  ROW00056  -1
    COL00051  ROW00050  1
    COL00052  ROW00073  -1
    COL00052  ROW00068  -1
    COL00052  ROW00057  -1
    COL00052  ROW00051  1
    COL00056  ROW00071  -1
    COL00056  ROW00066  -1
    COL00056  ROW00055  2
    COL00056  ROW00056  1
    COL00057  ROW00072  -1
    COL00057  ROW00067  -1
    COL00057  ROW00055  1
    COL00057  ROW00056  2
    COL00058  ROW00073  -1
    COL00058  ROW00068  -1
    COL00058  ROW00055  1.5
    COL00058  ROW00056  1.5
    COL00067  ROW00066  2
    COL00067  ROW00067  1
    COL00067  ROW00071  -1
    COL00068  ROW00066  1
    COL00068  ROW00067  2
    COL00068  ROW00072  -1
    COL00069  ROW00066  1.5
    COL00069  ROW00067  1.5
    COL00069  ROW00073  -1
    COL00072  ROW00099  -1
    COL00072  ROW00088  -1
    COL00072  ROW00077  -1
    COL00072  ROW00071  1
    COL00073  ROW00100  -1
    COL00073  ROW00089  -1
    COL00073  ROW00078  -1
    COL00073  ROW00072  1
    COL00074  ROW00101  -1
    COL00074  ROW00090  -1
    COL00074  ROW00079  -1
    COL00074  ROW00073  1
    COL00078  ROW00099  -1
    COL00078  ROW00088  -1
    COL00078  ROW00077  2
    COL00078  ROW00078  1
    COL00079  ROW00100  -1
    COL00079  ROW00089  -1
    COL00079  ROW00077  1
    COL00079  ROW00078  2
    COL00080  ROW00101  -1
    COL00080  ROW00090  -1
    COL00080  ROW00077  1.5
    COL00080  ROW00078  1.5
    COL00082  OBJ       -0.0874440175748134
    COL00082  ROW00079  8.2959634765926038e-01
    COL00082  ROW00057  5.3385447169599354e-01
    COL00082  ROW00035  2.8943969817263238e-01
    COL00082  ROW00024  1.8363243690710820e-01
    COL00082  ROW00013  0.0874440175748134
    COL00082  ROW00105  2.0618841933229484e-01
    COL00082  ROW00046  4.0582768556470911e-01
    COL00082  ROW00068  6.7468393644040625e-01
    COL00082  ROW00101  1.1874440175748135e+00
    COL00082  ROW00090  1
    COL00089  ROW00099  -1
    COL00089  ROW00088  2
    COL00089  ROW00089  1
    COL00090  ROW00100  -1
    COL00090  ROW00088  1
    COL00090  ROW00089  2
    COL00091  ROW00101  -1
    COL00091  ROW00088  1.5
    COL00091  ROW00089  1.5
    COL00100  ROW00099  2
    COL00100  ROW00100  1
    COL00100  ROW00103  -0.8
    COL00100  ROW00104  0.1
    COL00101  ROW00099  1
    COL00101  ROW00100  2
    COL00101  ROW00103  0.1
    COL00101  ROW00104  -0.8
    COL00102  ROW00099  1.5
    COL00102  ROW00100  1.5
    COL00102  ROW00103  0.15
    COL00102  ROW00104  0.15
    COL00102  ROW00105  -1
RHS
    RHS1      ROW00001  200
    RHS1      ROW00002  100
    RHS1      ROW00011  200
    RHS1      ROW00012  100
    RHS1      ROW00022  200
    RHS1      ROW00023  100
    RHS1      ROW00033  200
    RHS1      ROW00034  100
    RHS1      ROW00044  200
    RHS1      ROW00045  100
    RHS1      ROW00055  200
    RHS1      ROW00056  100
    RHS1      ROW00066  200
    RHS1      ROW00067  100
    RHS1      ROW00077  200
    RHS1      ROW00078  100
    RHS1      ROW00088  200
    RHS1      ROW00089  100
    RHS1      ROW00099  200
    RHS1      ROW00100  100
BOUNDS
 UP BND1      COL00006  100.101
 UP BND1      COL00007  50.051
 UP BND1      COL00008  6.6734333333333339e+01
 UP BND1      COL00012  150.151
 UP BND1      COL00013  75.076
 UP BND1      COL00014  100.101
 UP BND1      COL00023  225.226
 UP BND1      COL00024  112.6135
 UP BND1      COL00025  150.151
 UP BND1      COL00028  475.476
 UP BND1      COL00029  237.7385
 UP BND1      COL00030  3.1698433333333332e+02
 UP BND1      COL00034  337.8385
 UP BND1      COL00035  168.91975
 UP BND1      COL00036  225.226
 UP BND1      COL00045  506.75725
 UP BND1      COL00046  253.379125
 UP BND1      COL00047  337.8385
 UP BND1      COL00050  1320.06975
 UP BND1      COL00051  660.035375
 UP BND1      COL00052  8.8004683333333344e+02
 UP BND1      COL00056  760.135375
 UP BND1      COL00057  380.0681875
 UP BND1      COL00058  506.75725
 UP BND1      COL00067  1140.2025625
 UP BND1      COL00068  570.10178125
 UP BND1      COL00069  760.135375
 UP BND1      COL00072  3220.4056875
 UP BND1      COL00073  1610.20334375
 UP BND1      COL00074  2.1469374583333338e+03
 UP BND1      COL00078  1710.30334375
 UP BND1      COL00079  855.152171875
 UP BND1      COL00080  1140.2025625
 UP BND1      COL00082  7.6315593254000055e+02
 UP BND1      COL00089  2565.454515625
 UP BND1      COL00090  1282.7277578125
 UP BND1      COL00091  1710.30334375
 LO BND1      COL00100  -0.001
 UP BND1      COL00100  7.2153498895703137e+02
 UP BND1      COL00101  1924.09163721875
 UP BND1      COL00102  2.5654551829583334e+03
ENDATA
